Version identifier: 22.1.0.0 | 2022-03-09 | 1a383f8ce
CPXPARAM_Threads                                 1
CPXPARAM_MIP_Strategy_VariableSelect             3
CPXPARAM_TimeLimit                               599.99998601499999
1 of 1 MIP starts provided solutions.
MIP start 'm1' defined initial solution with objective 1.0000.
Tried aggregator 1 time.
MIP Presolve eliminated 9 rows and 0 columns.
MIP Presolve modified 4 coefficients.
Reduced MIP has 1415 rows, 4800 columns, and 66253 nonzeros.
Reduced MIP has 4800 binaries, 0 generals, 0 SOSs, and 0 indicators.
Presolve time = 0.04 sec. (36.08 ticks)
Probing time = 0.00 sec. (5.88 ticks)
Tried aggregator 1 time.
Detecting symmetries...
Reduced MIP has 1415 rows, 4800 columns, and 66253 nonzeros.
Reduced MIP has 4800 binaries, 0 generals, 0 SOSs, and 0 indicators.
Presolve time = 0.05 sec. (38.65 ticks)
Probing time = 0.00 sec. (5.88 ticks)
Clique table members: 795.
MIP emphasis: balance optimality and feasibility.
MIP search method: dynamic search.
Parallel mode: none, using 1 thread.
Root relaxation solution time = 0.72 sec. (815.95 ticks)

        Nodes                                         Cuts/
   Node  Left     Objective  IInf  Best Integer    Best Bound    ItCnt     Gap

*     0+    0                            1.0000     4800.0000              --- 
      0     0      200.0000   837        1.0000      200.0000     3575     --- 
      0     0      200.0000   428        1.0000      Cuts: 14     5151     --- 
      0     0      200.0000   594        1.0000       Cuts: 4     6688     --- 
      0     0      200.0000   689        1.0000      Cuts: 59    11065     --- 
*     0+    0                          128.0000      200.0000            56.25%
      0     0        cutoff            128.0000      200.0000    11065   56.25%
Detecting symmetries...
      0     2      200.0000   274      128.0000      200.0000    11065   56.25%
Elapsed time = 34.06 sec. (38549.14 ticks, tree = 0.01 MB, solutions = 2)
      1     3      178.0000   524      128.0000      200.0000    16798   56.25%
      2     4      200.0000   413      128.0000      200.0000    19910   56.25%
      3     4      200.0000   493      128.0000      200.0000    23743   56.25%
      4     5      200.0000   396      128.0000      200.0000    23868   56.25%
      5     6      200.0000   374      128.0000      200.0000    27013   56.25%
      6     7      200.0000   416      128.0000      200.0000    35251   56.25%
      7     8      200.0000   377      128.0000      200.0000    35292   56.25%
      8     9      200.0000   386      128.0000      200.0000    39319   56.25%
      9    10      200.0000   514      128.0000      200.0000    40750   56.25%
     10    11      199.8730   622      128.0000      200.0000    50323   56.25%
Elapsed time = 45.98 sec. (51768.35 ticks, tree = 0.08 MB, solutions = 2)
     13    14      200.0000   446      128.0000      200.0000    59077   56.25%
     16    17      199.8442   568      128.0000      200.0000    78277   56.25%
     18    19      200.0000   387      128.0000      200.0000    80305   56.25%
     20    21      199.8754   604      128.0000      200.0000    88789   56.25%
     23    24      199.8598   617      128.0000      200.0000    98845   56.25%
     25    26      200.0000   527      128.0000      200.0000   100827   56.25%
     26    27      200.0000   431      128.0000      200.0000   105568   56.25%
     28    28      199.8594   566      128.0000      200.0000   116115   56.25%
     29    29      200.0000   471      128.0000      200.0000   121687   56.25%
     30    30      200.0000   447      128.0000      200.0000   125449   56.25%
Elapsed time = 67.33 sec. (74478.58 ticks, tree = 0.28 MB, solutions = 2)
     32    32      200.0000   425      128.0000      200.0000   128335   56.25%
     33    33      200.0000   388      128.0000      200.0000   131326   56.25%
     34    34      200.0000   365      128.0000      200.0000   136303   56.25%
     35    35      200.0000   348      128.0000      200.0000   140109   56.25%
     37    37      199.9473   560      128.0000      200.0000   145733   56.25%
     38    38      200.0000   422      128.0000      200.0000   149261   56.25%
     39    39      200.0000   345      128.0000      200.0000   153861   56.25%
     40    40      200.0000   353      128.0000      200.0000   159296   56.25%
     41    41      200.0000   463      128.0000      200.0000   163270   56.25%
     42    42      199.8946   483      128.0000      200.0000   169704   56.25%
Elapsed time = 80.36 sec. (88095.11 ticks, tree = 0.36 MB, solutions = 2)
     43    43      200.0000   329      128.0000      200.0000   175464   56.25%
     44    44      200.0000   352      128.0000      200.0000   179218   56.25%
     45    44      200.0000   325      128.0000      200.0000   183318   56.25%
     47    46      200.0000   471      128.0000      200.0000   187780   56.25%
     48    47      200.0000   336      128.0000      200.0000   191653   56.25%
     51    50      199.8419   524      128.0000      200.0000   197462   56.25%
     53    52      200.0000   480      128.0000      200.0000   211162   56.25%
     56    55      200.0000   383      128.0000      200.0000   224423   56.25%
     58    57      200.0000   369      128.0000      200.0000   238528   56.25%
     60    58      200.0000   435      128.0000      200.0000   247577   56.25%
Elapsed time = 93.96 sec. (101601.51 ticks, tree = 0.55 MB, solutions = 2)
     63    61      200.0000   358      128.0000      200.0000   258338   56.25%
     65    63      200.0000   413      128.0000      200.0000   272354   56.25%
     68    66      200.0000   453      128.0000      200.0000   291942   56.25%
     70    68      200.0000   374      128.0000      200.0000   305842   56.25%
     72    70      200.0000   392      128.0000      200.0000   316835   56.25%
     74    72      200.0000   492      128.0000      200.0000   331698   56.25%
     76    74      199.9096   548      128.0000      200.0000   343829   56.25%
     78    76      200.0000   339      128.0000      200.0000   362993   56.25%
     80    78      199.7892   399      128.0000      200.0000   367085   56.25%
     84    81      200.0000   340      128.0000      200.0000   368573   56.25%
Elapsed time = 107.20 sec. (114045.20 ticks, tree = 0.85 MB, solutions = 2)
     86    83      200.0000   346      128.0000      200.0000   371839   56.25%
     88    84      200.0000   376      128.0000      200.0000   375084   56.25%
     91    87      199.9367   493      128.0000      200.0000   379914   56.25%
     93    89      199.7468   432      128.0000      200.0000   385876   56.25%
     96    91      200.0000   318      128.0000      200.0000   390993   56.25%
     98    93      199.7468   414      128.0000      200.0000   397826   56.25%
    100    95      199.9684   445      128.0000      200.0000   403681   56.25%
    103    98      200.0000   318      128.0000      200.0000   408200   56.25%
    105    99      199.8734   385      128.0000      200.0000   411364   56.25%
    108   101      200.0000   324      128.0000      200.0000   413977   56.25%
Elapsed time = 120.65 sec. (127305.50 ticks, tree = 1.10 MB, solutions = 2)
    112   102      200.0000   353      128.0000      200.0000   418515   56.25%
    116   102      200.0000   352      128.0000      200.0000   421520   56.25%
    120   103      200.0000   309      128.0000      200.0000   424073   56.25%
    125   107      200.0000   314      128.0000      200.0000   426464   56.25%
    127   109      200.0000   387      128.0000      200.0000   430996   56.25%
    130   111      200.0000   399      128.0000      200.0000   436492   56.25%
    134   113      200.0000   349      128.0000      200.0000   438185   56.25%
    137   115      199.6835   386      128.0000      200.0000   441932   56.25%
    142   117      200.0000   334      128.0000      200.0000   443436   56.25%
    145   119      200.0000   361      128.0000      200.0000   447668   56.25%
Elapsed time = 135.18 sec. (141478.73 ticks, tree = 1.35 MB, solutions = 2)
    148   122      199.7872   331      128.0000      200.0000   451113   56.25%
    150   124      200.0000   340      128.0000      200.0000   451461   56.25%
    153   126      200.0000   336      128.0000      200.0000   457093   56.25%
    156   129      200.0000   268      128.0000      200.0000   460259   56.25%
    159   129      199.9563   366      128.0000      200.0000   472414   56.25%
    160   129      199.9510   308      128.0000      200.0000   472956   56.25%
    165   132      198.7500   323      128.0000      200.0000   477129   56.25%
    170   133      199.9194   290      128.0000      200.0000   478832   56.25%
    175   134      199.9020   307      128.0000      200.0000   482168   56.25%
    183   138      199.8966   304      128.0000      200.0000   483788   56.25%
Elapsed time = 149.57 sec. (155323.99 ticks, tree = 1.51 MB, solutions = 2)
    188   141      199.8621   344      128.0000      200.0000   486047   56.25%
    192   143      199.8448   355      128.0000      200.0000   489348   56.25%
    196   143      199.7566   434      128.0000      200.0000   494261   56.25%
    200   146      199.7018   424      128.0000      200.0000   496525   56.25%
    205   147      199.6641   377      128.0000      200.0000   499931   56.25%
    213   150      199.2092   398      128.0000      200.0000   501777   56.25%
    218   151      199.5536   451      128.0000      200.0000   502894   56.25%
    220   151      199.5536   410      128.0000      200.0000   503332   56.25%
    227   155      199.5361   393      128.0000      200.0000   504363   56.25%
    231   158      199.5235   409      128.0000      200.0000   506694   56.25%
Elapsed time = 161.10 sec. (166475.25 ticks, tree = 1.55 MB, solutions = 2)
    235   162      199.5068   393      128.0000      200.0000   509656   56.25%
    240   163      199.5068   390      128.0000      200.0000   511831   56.25%
    244   165      199.4795   352      128.0000      200.0000   515847   56.25%
    250   166      199.2180   400      128.0000      200.0000   520360   56.25%
    255   168      199.3704   407      128.0000      200.0000   523238   56.25%
    260   169    infeasible            128.0000      200.0000   527333   56.25%
    265   171      198.6530   389      128.0000      200.0000   532035   56.25%
    269   173      199.2685   349      128.0000      200.0000   535897   56.25%
    274   173      199.2549   357      128.0000      200.0000   538937   56.25%
    293   178    infeasible            128.0000      200.0000   553747   56.25%
Elapsed time = 176.18 sec. (180882.55 ticks, tree = 1.59 MB, solutions = 2)
    304   179      198.4884   377      128.0000      200.0000   569613   56.25%
    321   182      198.5197   451      128.0000      200.0000   581207   56.25%
    345   187      197.9981   495      128.0000      200.0000   590394   56.25%
    370   191      197.3876   445      128.0000      200.0000   596632   56.25%
    386   196      196.9936   371      128.0000      200.0000   607831   56.25%
    400   196    infeasible            128.0000      200.0000   627348   56.25%
    412   200      200.0000   315      128.0000      200.0000   640384   56.25%
    421   205      199.9255   417      128.0000      200.0000   660244   56.25%
    439   215      199.7422   403      128.0000      200.0000   669417   56.25%
    448   220      199.6795   384      128.0000      200.0000   676939   56.25%
Elapsed time = 218.38 sec. (221600.89 ticks, tree = 2.09 MB, solutions = 2)
    465   227      197.0000   427      128.0000      200.0000   691821   56.25%
    481   233      199.4405   431      128.0000      200.0000   699158   56.25%
    500   243      198.7500   406      128.0000      200.0000   709173   56.25%
    514   249      198.9372   463      128.0000      200.0000   723841   56.25%
    533   256      199.2162   468      128.0000      200.0000   731214   56.25%
    553   263    infeasible            128.0000      200.0000   743558   56.25%
    567   269      198.1466   454      128.0000      200.0000   752141   56.25%
    588   277      198.6882   379      128.0000      200.0000   763746   56.25%
    600   280      198.6231   453      128.0000      200.0000   777730   56.25%
    626   287      198.4337   453      128.0000      200.0000   784546   56.25%
Elapsed time = 261.84 sec. (263775.32 ticks, tree = 2.98 MB, solutions = 2)
    640   289      198.1734   431      128.0000      200.0000   795789   56.25%
    657   292      197.7828   458      128.0000      200.0000   808261   56.25%
    679   293      197.2072   482      128.0000      200.0000   820437   56.25%
    694   297      196.3077   465      128.0000      200.0000   830629   56.25%
    715   305      195.6250   265      128.0000      200.0000   842699   56.25%
    728   306      200.0000   245      128.0000      200.0000   860413   56.25%
    744   315      199.6296   384      128.0000      200.0000   873219   56.25%
    767   331      199.5455   338      128.0000      200.0000   875977   56.25%
    786   338      199.2940   433      128.0000      200.0000   884669   56.25%
    805   345      199.5698   372      128.0000      200.0000   898178   56.25%
Elapsed time = 304.19 sec. (304393.16 ticks, tree = 3.73 MB, solutions = 2)
    820   352      199.7651   445      128.0000      200.0000   911227   56.25%
    837   360      199.6324   395      128.0000      200.0000   920896   56.25%
    849   365      199.5192   390      128.0000      200.0000   930028   56.25%
    866   372      199.3750   369      128.0000      200.0000   940664   56.25%
    884   377      197.0000   417      128.0000      200.0000   954181   56.25%
    900   381      199.0957   401      128.0000      200.0000   964378   56.25%
    924   392      198.9007   388      128.0000      200.0000   972793   56.25%
    944   394      198.7128   417      128.0000      200.0000   984238   56.25%
    959   398      198.4588   418      128.0000      200.0000   997619   56.25%
    970   401      198.3087   370      128.0000      200.0000  1005884   56.25%
Elapsed time = 345.23 sec. (344092.63 ticks, tree = 4.49 MB, solutions = 2)
    987   409      197.8030   444      128.0000      200.0000  1020011   56.25%
    999   411      196.2143   391      128.0000      200.0000  1037195   56.25%
*  1000+  410                          137.0000      200.0000            45.99%
*  1000+  408                          182.0000      200.0000             9.89%
*  1000+  408                          183.0000      200.0000             9.29%
   1000   410      197.5282   438      183.0000      200.0000  1037242    9.29%
   1016   419      199.3341   388      183.0000      200.0000  1045814    9.29%
   1032   426      199.1935   339      183.0000      200.0000  1053891    9.29%
   1047   434      199.1935   376      183.0000      200.0000  1063010    9.29%
   1062   442      199.0286   459      183.0000      200.0000  1075375    9.29%
   1081   456      198.8224   432      183.0000      200.0000  1083085    9.29%
   1095   460      198.6002   419      183.0000      200.0000  1093900    9.29%
   1118   472      198.1554   421      183.0000      200.0000  1100917    9.29%
Elapsed time = 392.14 sec. (388548.76 ticks, tree = 5.43 MB, solutions = 5)
   1140   484      198.0125   350      183.0000      200.0000  1106777    9.29%
   1166   493      197.6232   381      183.0000      200.0000  1114228    9.29%
   1185   500      197.0636   335      183.0000      200.0000  1123403    9.29%
   1206   513      200.0000   315      183.0000      200.0000  1129113    9.29%
   1217   517      200.0000   280      183.0000      200.0000  1140767    9.29%
   1230   527      199.6296   304      183.0000      200.0000  1151305    9.29%
   1246   532      199.5652   336      183.0000      200.0000  1160246    9.29%
   1263   538      199.5652   425      183.0000      200.0000  1169483    9.29%
   1279   546      199.5652   425      183.0000      200.0000  1177172    9.29%
   1293   551      199.1950   401      183.0000      200.0000  1184564    9.29%
Elapsed time = 432.99 sec. (428071.37 ticks, tree = 6.51 MB, solutions = 5)
   1313   556      198.9251   425      183.0000      200.0000  1192037    9.29%
   1336   564      198.5441   455      183.0000      200.0000  1197952    9.29%
   1350   569      198.2955   427      183.0000      200.0000  1208143    9.29%
   1365   574      197.7778   387      183.0000      200.0000  1221293    9.29%
   1380   577      197.2308   410      183.0000      200.0000  1231512    9.29%
   1396   582      196.5000   405      183.0000      200.0000  1243639    9.29%
   1412   588      199.5161   385      183.0000      200.0000  1256545    9.29%
   1428   594      199.4747   446      183.0000      200.0000  1265747    9.29%
*  1437+  596                          189.0000      200.0000             5.82%
   1438   597      199.9818   411      189.0000      200.0000  1271366    5.82%
   1440   597      199.6078   354      189.0000      200.0000  1280748    5.82%
Elapsed time = 506.13 sec. (495093.91 ticks, tree = 7.12 MB, solutions = 6)
*  1441+  596                          190.0000      200.0000             5.26%
   1446   603      199.8101   407      190.0000      200.0000  1289638    5.26%
   1468   619      199.7887   325      190.0000      200.0000  1292055    5.26%
   1489   635      199.7458   359      190.0000      200.0000  1296019    5.26%
   1504   644      199.6512   345      190.0000      200.0000  1302760    5.26%
   1518   656      199.5000   434      190.0000      200.0000  1312172    5.26%
   1527   661      199.5000   408      190.0000      200.0000  1316997    5.26%
   1540   670      199.4286   405      190.0000      200.0000  1324507    5.26%

Performing restart 1

Repeating presolve.
Tried aggregator 1 time.
Reduced MIP has 1415 rows, 4800 columns, and 66253 nonzeros.
Reduced MIP has 4800 binaries, 0 generals, 0 SOSs, and 0 indicators.
Presolve time = 0.04 sec. (33.28 ticks)
Tried aggregator 1 time.
Reduced MIP has 1415 rows, 4800 columns, and 66253 nonzeros.
Reduced MIP has 4800 binaries, 0 generals, 0 SOSs, and 0 indicators.
Presolve time = 0.05 sec. (39.61 ticks)
Represolve time = 0.30 sec. (234.01 ticks)
   1551     0      200.0000   412      190.0000       Cuts: 9  1350696    5.26%
   1551     0      200.0000   509      190.0000      Cuts: 20  1358015    5.26%
   1551     0      200.0000   661      190.0000       Cuts: 8  1363743    5.26%
   1551     0      200.0000   527      190.0000      Cuts: 54  1369896    5.26%
   1551     0      200.0000   440      190.0000      Cuts: 12  1376320    5.26%

Clique cuts applied:  14
Zero-half cuts applied:  45
Gomory fractional cuts applied:  4

Root node processing (before b&c):
  Real time             =   34.00 sec. (38476.69 ticks)
Sequential b&c:
  Real time             =  566.01 sec. (558854.82 ticks)
                          ------------
Total (root+branch&cut) =  600.01 sec. (597331.50 ticks)
Primal:	190
Dual:	200
Status:	Feasible
Time:	599.99
Sequence:
	21
	8
	14
	8
	20
	0
	17
	10
	15
	6
	17
	5
	17
	6
	14
	12
	14
	6
	22
	0
	19
	10
	14
	8
	11
	14
	8
	10
	14
	7
	16
	8
	17
	4
	17
	7
	16
	6
	15
	6
	17
	5
	17
	6
	15
	10
	15
	6
	17
	4
	18
	6
	16
	8
	17
	3
	19
	6
	16
	6
	19
	3
	17
	6
	14
	8
	18
	2
	8
	6
	16
	9
	14
	12
	14
	6
	18
	2
	19
	8
	16
	7
	17
	4
	17
	6
	16
	9
	14
	8
	17
	2
	18
	8
	16
	8
	14
	10
	17
	0
	20
	8
	14
	6
	17
	5
	14
	8
	10
	14
	7
	8
	16
	6
	17
	5
	19
	6
	14
	10
	15
	7
	14
	12
	14
	6
	13
	14
	8
	14
	10
	14
	8
	14
	1
	20
	6
	14
	10
	15
	9
	16
	6
	17
	4
	18
	6
	15
	6
	10
	14
	8
	11
	14
	8
	17
	4
	17
	6
	16
	9
	17
	4
	17
	6
	16
	9
	8
	2
	14
	6
	20
	1
	19
	6
	14
	10
	15
	6
	19
	3
	17
	6
	15
	12
	14
	6
	14
	7
	20
